presolving:
(round 1, fast)       148413 del vars, 148414 del conss, 0 add conss, 293888 chg bounds, 0 chg sides, 0 chg coeffs, 0 upgd conss, 0 impls, 35872 clqs
   (2.6s) running MILP presolver
   (3.4s) MILP presolver (2 rounds): 0 aggregations, 0 fixings, 112 bound changes
(round 2, medium)     148413 del vars, 189592 del conss, 38553 add conss, 294000 chg bounds, 0 chg sides, 0 chg coeffs, 0 upgd conss, 0 impls, 35872 clqs
(round 3, exhaustive) 148413 del vars, 189592 del conss, 38553 add conss, 294000 chg bounds, 0 chg sides, 0 chg coeffs, 35872 upgd conss, 0 impls, 35872 clqs
   (6.5s) probing: 51/471 (10.8%) - 0 fixings, 0 aggregations, 0 implications, 0 bound changes
   (6.5s) probing aborted: 50/50 successive totally useless probings
   (7.0s) symmetry computation started: requiring (bin +, int -, cont +), (fixed: bin -, int +, cont -)
   (7.3s) no symmetry present
presolving (4 rounds: 4 fast, 3 medium, 2 exhaustive):
 295413 deleted vars, 192273 deleted constraints, 38553 added constraints, 294000 tightened bounds, 0 added holes, 0 changed sides, 0 changed coefficients
 0 implications, 35872 cliques
presolved problem has 471 variables (471 bin, 0 int, 0 impl, 0 cont) and 35872 constraints
  35872 constraints of type <setppc>
Presolving Time: 8.91

 time | node  | left  |LP iter|LP it/n|mem/heur|mdpt |vars |cons |rows |cuts |sepa|confs|strbr|  dualbound   | primalbound  |  gap   | compl. 
t 9.8s|     1 |     0 |     0 |     - | trivial|   0 | 471 |  35k|   0 |   0 |  0 |   0 |   0 | 1.459866e+06 | 1.459443e+06 |   0.03%| unknown
p 9.8s|     1 |     0 |     0 |     - |  clique|   0 | 471 |  35k|  35k|   0 |  0 |   0 |   0 | 1.459866e+06 | 1.459455e+06 |   0.03%| unknown
p 9.9s|     1 |     0 |     0 |     - |   locks|   0 | 471 |  35k|  35k|   0 |  0 |   0 |   0 | 1.459866e+06 | 1.459528e+06 |   0.02%| unknown
 10.4s|     1 |     0 |  1072 |     - |  1390M |   0 | 471 |  35k|  35k|   0 |  0 |   0 |   0 | 1.459550e+06 | 1.459528e+06 |   0.00%| unknown
 12.1s|     1 |     0 |  1152 |     - |  1396M |   0 | 471 |  35k|  35k|   2 |  1 |   0 |   0 | 1.459550e+06 | 1.459528e+06 |   0.00%| unknown
 14.0s|     1 |     0 |  1206 |     - |  1400M |   0 | 471 |  35k|  35k|   4 |  2 |   0 |   0 | 1.459550e+06 | 1.459528e+06 |   0.00%| unknown
 15.8s|     1 |     0 |  1269 |     - |  1405M |   0 | 471 |  35k|  35k|   6 |  3 |   0 |   0 | 1.459549e+06 | 1.459528e+06 |   0.00%| unknown
 17.9s|     1 |     0 |  1689 |     - |  1409M |   0 | 471 |  35k|  35k|  38 |  4 |   0 |   0 | 1.459548e+06 | 1.459528e+06 |   0.00%| unknown
 21.4s|     1 |     0 |  1883 |     - |  1413M |   0 | 471 |  35k|  35k|  43 |  5 |   0 |   0 | 1.459548e+06 | 1.459528e+06 |   0.00%| unknown
 23.7s|     1 |     0 |  2108 |     - |  1416M |   0 | 471 |  35k|  35k|  56 |  6 |   0 |   0 | 1.459548e+06 | 1.459528e+06 |   0.00%| unknown
 27.2s|     1 |     0 |  2271 |     - |  1420M |   0 | 471 |  35k|  35k|  59 |  7 |   0 |   0 | 1.459548e+06 | 1.459528e+06 |   0.00%| unknown
 33.4s|     1 |     0 |  2347 |     - |  1424M |   0 | 471 |  35k|  35k|  62 |  8 |   0 |   0 | 1.459548e+06 | 1.459528e+06 |   0.00%| unknown
 37.2s|     1 |     0 |  2641 |     - |  1428M |   0 | 471 |  35k|  35k|  66 |  9 |   0 |   0 | 1.459547e+06 | 1.459528e+06 |   0.00%| unknown
 39.4s|     1 |     0 |  2833 |     - |  1432M |   0 | 471 |  35k|  35k|  69 | 10 |   0 |   0 | 1.459547e+06 | 1.459528e+06 |   0.00%| unknown
 39.7s|     1 |     0 |  3317 |     - |  1436M |   0 | 471 |  35k|  35k|  73 | 11 |   0 |   0 | 1.459547e+06 | 1.459528e+06 |   0.00%| unknown
 time | node  | left  |LP iter|LP it/n|mem/heur|mdpt |vars |cons |rows |cuts |sepa|confs|strbr|  dualbound   | primalbound  |  gap   | compl. 
 40.0s|     1 |     0 |  3610 |     - |  1439M |   0 | 471 |  35k|  35k|  77 | 12 |   0 |   0 | 1.459546e+06 | 1.459528e+06 |   0.00%| unknown
 40.4s|     1 |     0 |  4075 |     - |  1443M |   0 | 471 |  35k|  35k| 103 | 13 |   0 |   0 | 1.459546e+06 | 1.459528e+06 |   0.00%| unknown
 40.9s|     1 |     0 |  4658 |     - |  1447M |   0 | 471 |  35k|  35k| 120 | 14 |   0 |   0 | 1.459545e+06 | 1.459528e+06 |   0.00%| unknown
 41.4s|     1 |     0 |  5366 |     - |  1451M |   0 | 471 |  35k|  36k| 132 | 15 |   0 |   0 | 1.459544e+06 | 1.459528e+06 |   0.00%| unknown
 41.9s|     1 |     0 |  5947 |     - |  1454M |   0 | 471 |  35k|  36k| 152 | 16 |   0 |   0 | 1.459543e+06 | 1.459528e+06 |   0.00%| unknown
 42.2s|     1 |     0 |  6353 |     - |  1458M |   0 | 471 |  35k|  36k| 158 | 17 |   0 |   0 | 1.459543e+06 | 1.459528e+06 |   0.00%| unknown
 42.9s|     1 |     0 |  7238 |     - |  1462M |   0 | 471 |  35k|  36k| 167 | 18 |   0 |   0 | 1.459541e+06 | 1.459528e+06 |   0.00%| unknown
 43.1s|     1 |     0 |  7609 |     - |  1465M |   0 | 471 |  35k|  36k| 169 | 19 |   0 |   0 | 1.459541e+06 | 1.459528e+06 |   0.00%| unknown
 43.5s|     1 |     0 |  8079 |     - |  1469M |   0 | 471 |  35k|  36k| 178 | 20 |   0 |   0 | 1.459541e+06 | 1.459528e+06 |   0.00%| unknown
 44.0s|     1 |     0 |  8681 |     - |  1470M |   0 | 471 |  35k|  36k| 191 | 21 |   0 |   0 | 1.459540e+06 | 1.459528e+06 |   0.00%| unknown
 44.3s|     1 |     0 |  9186 |     - |  1470M |   0 | 471 |  35k|  36k| 197 | 22 |   0 |   0 | 1.459539e+06 | 1.459528e+06 |   0.00%| unknown
 44.7s|     1 |     0 |  9676 |     - |  1470M |   0 | 471 |  35k|  36k| 200 | 23 |   0 |   0 | 1.459539e+06 | 1.459528e+06 |   0.00%| unknown
 45.1s|     1 |     0 | 10194 |     - |  1470M |   0 | 471 |  35k|  36k| 207 | 24 |   0 |   0 | 1.459538e+06 | 1.459528e+06 |   0.00%| unknown
 45.5s|     1 |     0 | 10735 |     - |  1471M |   0 | 471 |  35k|  36k| 210 | 25 |   0 |   0 | 1.459538e+06 | 1.459528e+06 |   0.00%| unknown
 45.7s|     1 |     0 | 11037 |     - |  1471M |   0 | 471 |  35k|  36k| 213 | 26 |   0 |   0 | 1.459538e+06 | 1.459528e+06 |   0.00%| unknown
 time | node  | left  |LP iter|LP it/n|mem/heur|mdpt |vars |cons |rows |cuts |sepa|confs|strbr|  dualbound   | primalbound  |  gap   | compl. 
 46.0s|     1 |     0 | 11491 |     - |  1471M |   0 | 471 |  35k|  36k| 218 | 27 |   0 |   0 | 1.459537e+06 | 1.459528e+06 |   0.00%| unknown
 46.2s|     1 |     0 | 11776 |     - |  1472M |   0 | 471 |  35k|  36k| 220 | 28 |   0 |   0 | 1.459537e+06 | 1.459528e+06 |   0.00%| unknown
 46.5s|     1 |     0 | 12154 |     - |  1472M |   0 | 471 |  35k|  36k| 226 | 29 |   0 |   0 | 1.459536e+06 | 1.459528e+06 |   0.00%| unknown
 46.9s|     1 |     0 | 12658 |     - |  1472M |   0 | 471 |  35k|  36k| 233 | 30 |   0 |   0 | 1.459536e+06 | 1.459528e+06 |   0.00%| unknown
 47.2s|     1 |     0 | 13090 |     - |  1472M |   0 | 471 |  35k|  36k| 241 | 31 |   0 |   0 | 1.459535e+06 | 1.459528e+06 |   0.00%| unknown
 47.7s|     1 |     0 | 13714 |     - |  1472M |   0 | 471 |  35k|  36k| 245 | 32 |   0 |   0 | 1.459535e+06 | 1.459528e+06 |   0.00%| unknown
 48.0s|     1 |     0 | 14136 |     - |  1472M |   0 | 471 |  35k|  36k| 248 | 33 |   0 |   0 | 1.459534e+06 | 1.459528e+06 |   0.00%| unknown
 48.2s|     1 |     0 | 14417 |     - |  1473M |   0 | 471 |  35k|  36k| 251 | 34 |   0 |   0 | 1.459534e+06 | 1.459528e+06 |   0.00%| unknown
 48.6s|     1 |     0 | 14974 |     - |  1473M |   0 | 471 |  35k|  36k| 254 | 35 |   0 |   0 | 1.459533e+06 | 1.459528e+06 |   0.00%| unknown
 48.9s|     1 |     0 | 15460 |     - |  1473M |   0 | 471 |  35k|  36k| 259 | 36 |   0 |   0 | 1.459533e+06 | 1.459528e+06 |   0.00%| unknown
 48.9s|     1 |     0 | 15460 |     - |  1473M |   0 | 471 |  35k|  35k| 259 | 36 |   0 |   0 | 1.459533e+06 | 1.459528e+06 |   0.00%| unknown
 49.2s|     1 |     0 | 15826 |     - |  1473M |   0 | 471 |  35k|  35k| 264 | 37 |   0 |   0 | 1.459532e+06 | 1.459528e+06 |   0.00%| unknown
 49.2s|     1 |     0 | 15826 |     - |  1474M |   0 | 471 |  35k|  35k| 264 | 37 |   0 |   0 | 1.459532e+06 | 1.459528e+06 |   0.00%| unknown
 49.5s|     1 |     0 | 16217 |     - |  1474M |   0 | 471 |  35k|  35k| 267 | 38 |   0 |   0 | 1.459532e+06 | 1.459528e+06 |   0.00%| unknown
 49.5s|     1 |     0 | 16217 |     - |  1474M |   0 | 471 |  35k|  35k| 267 | 38 |   0 |   0 | 1.459532e+06 | 1.459528e+06 |   0.00%| unknown
 time | node  | left  |LP iter|LP it/n|mem/heur|mdpt |vars |cons |rows |cuts |sepa|confs|strbr|  dualbound   | primalbound  |  gap   | compl. 
 49.8s|     1 |     0 | 16799 |     - |  1474M |   0 | 471 |  34k|  35k| 273 | 39 |   0 |   0 | 1.459531e+06 | 1.459528e+06 |   0.00%| unknown
 49.9s|     1 |     0 | 16799 |     - |  1474M |   0 | 471 |  34k|  33k| 273 | 39 |   0 |   0 | 1.459531e+06 | 1.459528e+06 |   0.00%| unknown
 50.2s|     1 |     0 | 17307 |     - |  1474M |   0 | 471 |  33k|  33k| 276 | 40 |   0 |   0 | 1.459531e+06 | 1.459528e+06 |   0.00%| unknown
 50.2s|     1 |     0 | 17307 |     - |  1475M |   0 | 471 |  33k|  33k| 276 | 40 |   0 |   0 | 1.459531e+06 | 1.459528e+06 |   0.00%| unknown
 50.4s|     1 |     0 | 17664 |     - |  1475M |   0 | 471 |  32k|  33k| 278 | 41 |   0 |   0 | 1.459531e+06 | 1.459528e+06 |   0.00%| unknown
 50.7s|     1 |     0 | 18138 |     - |  1475M |   0 | 471 |  32k|  33k| 281 | 42 |   0 |   0 | 1.459530e+06 | 1.459528e+06 |   0.00%| unknown
 50.8s|     1 |     0 | 18138 |     - |  1475M |   0 | 471 |  32k|  32k| 281 | 42 |   0 |   0 | 1.459530e+06 | 1.459528e+06 |   0.00%| unknown
 51.1s|     1 |     0 | 18716 |     - |  1475M |   0 | 471 |  31k|  32k| 284 | 43 |   0 |   0 | 1.459530e+06 | 1.459528e+06 |   0.00%| unknown
 51.1s|     1 |     0 | 18716 |     - |  1475M |   0 | 471 |  31k|  30k| 284 | 43 |   0 |   0 | 1.459530e+06 | 1.459528e+06 |   0.00%| unknown
 51.3s|     1 |     0 | 19112 |     - |  1475M |   0 | 471 |  30k|  30k| 287 | 44 |   0 |   0 | 1.459530e+06 | 1.459528e+06 |   0.00%| unknown
 51.4s|     1 |     0 | 19112 |     - |  1476M |   0 | 471 |  30k|  28k| 287 | 44 |   0 |   0 | 1.459530e+06 | 1.459528e+06 |   0.00%| unknown
 51.6s|     1 |     0 | 19509 |     - |  1476M |   0 | 471 |  28k|  28k| 291 | 45 |   0 |   0 | 1.459529e+06 | 1.459528e+06 |   0.00%| unknown
 51.6s|     1 |     0 | 19509 |     - |  1476M |   0 | 471 |  28k|  25k| 291 | 45 |   0 |   0 | 1.459529e+06 | 1.459528e+06 |   0.00%| unknown
 51.9s|     1 |     0 | 20053 |     - |  1476M |   0 | 471 |  24k|  25k| 301 | 46 |   0 |   0 | 1.459529e+06 | 1.459528e+06 |   0.00%| unknown
 51.9s|     1 |     0 | 20053 |     - |  1476M |   0 | 471 |  24k|  18k| 301 | 46 |   0 |   0 | 1.459529e+06 | 1.459528e+06 |   0.00%| unknown
 time | node  | left  |LP iter|LP it/n|mem/heur|mdpt |vars |cons |rows |cuts |sepa|confs|strbr|  dualbound   | primalbound  |  gap   | compl. 
 52.0s|     1 |     0 | 20270 |     - |  1476M |   0 | 471 |  18k|  18k| 306 | 47 |   0 |   0 | 1.459528e+06 | 1.459528e+06 |   0.00%| unknown
 52.0s|     1 |     0 | 20270 |     - |  1476M |   0 | 471 |  18k|  12k| 306 | 47 |   0 |   0 | 1.459528e+06 | 1.459528e+06 |   0.00%| unknown
d52.0s|     1 |     0 | 20270 |     - |farkasdi|   0 | 471 |  12k|  12k|   0 | 49 |   0 |   0 | 1.459528e+06 | 1.459528e+06 |   0.00%| unknown
 52.0s|     1 |     0 | 20270 |     - |  1476M |   0 | 471 |  12k|  12k| 306 | 49 |   0 |   0 | 1.459528e+06 | 1.459528e+06 |   0.00%| unknown

SCIP Status        : problem is solved [optimal solution found]
Solving Time (sec) : 52.05
Solving Nodes      : 1
Primal Bound       : +1.45952844452167e+06 (51 solutions)
Dual Bound         : +1.45952844452167e+06
Gap                : 0.00 %
Solve Status: optimal
Solve Time: 52.15 seconds
